50
351
8
61
7
36
19
30
53
96
21
0 2
0 4
0 7
0 10
0 11
0 16
0 21
0 23
0 26
0 27
0 29
0 40
0 42
0 44
0 48
1 7
1 8
1 11
1 16
1 17
1 18
1 20
1 28
1 29
1 31
1 35
1 37
1 40
1 43
1 47
1 48
2 3
2 5
2 9
2 13
2 16
2 26
2 27
2 29
2 37
2 38
2 45
3 6
3 8
3 13
3 15
3 20
3 21
3 29
3 31
3 40
3 43
3 49
4 6
4 7
4 18
4 22
4 26
4 30
4 35
5 13
5 15
5 20
5 21
5 22
5 23
5 26
5 38
5 39
5 45
5 49
6 11
6 13
6 16
6 22
6 29
6 30
6 33
6 42
6 43
6 45
6 46
6 47
7 11
7 16
7 19
7 20
7 21
7 24
7 28
7 35
7 40
7 41
7 44
7 47
8 9
8 19
8 20
8 21
8 22
8 23
8 32
8 37
8 39
8 42
8 44
9 11
9 12
9 17
9 21
9 22
9 25
9 31
9 32
9 39
9 40
9 44
10 13
10 14
10 21
10 23
10 25
10 26
10 34
10 42
11 13
11 22
11 28
11 29
11 33
11 35
11 38
11 43
11 48
12 14
12 18
12 19
12 25
12 32
12 34
12 35
12 36
12 39
12 43
13 17
13 21
13 22
13 23
13 27
13 28
13 30
13 32
13 33
13 35
13 38
13 47
13 48
14 15
14 21
14 25
14 27
14 29
14 35
14 36
14 39
14 45
14 49
15 16
15 17
15 21
15 22
15 25
15 26
15 28
15 31
15 32
15 33
15 36
15 40
15 42
15 43
15 46
15 49
16 18
16 20
16 23
16 29
16 31
16 33
16 49
17 18
17 27
17 30
17 33
17 36
17 37
17 38
17 43
17 45
17 46
18 19
18 23
18 42
18 43
18 46
19 21
19 26
19 28
19 30
19 33
19 34
19 38
19 39
19 42
19 43
20 23
20 30
20 34
20 41
20 42
21 22
21 23
21 28
21 30
21 32
21 33
21 35
21 39
21 40
21 42
21 43
21 44
21 47
21 49
22 30
22 31
22 32
22 33
22 34
22 35
22 36
22 38
22 41
22 44
22 49
23 24
23 32
23 33
23 36
23 45
23 46
24 32
24 41
24 42
24 43
24 45
24 46
24 47
25 26
25 29
25 30
25 31
25 35
25 36
25 40
25 43
25 47
25 48
26 27
26 36
26 37
26 38
26 40
26 46
27 28
27 29
27 32
27 35
27 37
27 38
27 39
27 41
27 49
28 29
28 31
28 32
28 35
28 36
28 39
28 42
28 49
29 31
29 38
29 39
29 45
29 48
30 35
30 36
30 47
30 48
31 32
31 34
31 36
31 37
31 39
31 41
31 46
32 33
32 35
32 40
32 48
33 34
33 38
33 45
33 49
34 35
34 42
34 44
34 46
34 47
35 38
35 42
35 43
36 39
36 40
36 42
36 49
37 39
37 40
37 42
37 43
37 45
37 47
37 48
38 43
38 47
39 45
39 49
40 46
40 47
40 48
40 49
41 47
41 48
42 44
42 45
43 45
44 48
44 49
45 46
45 47
49 42 33 28 0 29 24
34 13 11 38 17 15 27
7 32 25 16 40 14 35
46 1 2 22 4 39 31
12 47 10 48 44 8 18
30 36 21 23 20 45 9
26 37 5 41 3 6 43
19
